(set-logic ALL)
(declare-fun var0 () String)
(assert (str.in_re var0 (re.++ (re.union (re.* (str.to_re "0")) (re.* (str.to_re "11"))) (re.++ (re.+ (re.union (str.to_re "22") (str.to_re "33"))) (re.++ (re.+ (re.* (str.to_re "4"))) (re.++ (re.+ (re.union (str.to_re "55") (str.to_re "666"))) (re.++ (re.union (re.+ (str.to_re "777")) (re.+ (str.to_re "8"))) (re.++ (re.+ (re.+ (str.to_re "99"))) (re.++ (re.union (re.union (str.to_re "aaa") (str.to_re "bb")) (re.union (str.to_re "cc") (str.to_re "d"))) (re.++ (re.* (re.+ (str.to_re "eee"))) (re.++ (re.union (re.* (str.to_re "ff")) (re.* (str.to_re "g"))) (re.++ (re.union (re.+ (str.to_re "h")) (re.+ (str.to_re "i"))) (re.++ (re.+ (re.* (str.to_re "j"))) (re.++ (re.* (re.+ (str.to_re "kkk"))) (re.++ (re.* (re.+ (str.to_re "lll"))) (re.++ (re.union (re.+ (str.to_re "m")) (re.+ (str.to_re "nnn"))) (re.++ (re.+ (re.* (str.to_re "o"))) (re.++ (re.+ (re.+ (str.to_re "pp"))) (re.++ (re.+ (re.* (str.to_re "q"))) (re.++ (re.* (re.union (str.to_re "r") (str.to_re "sss"))) (re.++ (re.union (re.+ (str.to_re "tt")) (re.+ (str.to_re "u"))) (re.++ (re.+ (re.+ (str.to_re "vv"))) (re.++ (re.* (re.* (str.to_re "ww"))) (re.++ (re.union (re.union (str.to_re "x") (str.to_re "y")) (re.union (str.to_re "zzz") (str.to_re "AAA"))) (re.++ (re.union (re.* (str.to_re "BBB")) (re.* (str.to_re "CC"))) (re.++ (re.+ (re.+ (str.to_re "D"))) (re.++ (re.* (re.* (str.to_re "EE"))) (re.++ (re.union (re.+ (str.to_re "FFF")) (re.+ (str.to_re "G"))) (re.++ (re.union (re.* (str.to_re "HH")) (re.* (str.to_re "II"))) (re.++ (re.+ (re.* (str.to_re "JJJ"))) (re.++ (re.union (re.union (str.to_re "KKK") (str.to_re "LL")) (re.union (str.to_re "MM") (str.to_re "N"))) (re.++ (re.+ (re.+ (str.to_re "OOO"))) (re.++ (re.* (re.* (str.to_re "PPP"))) (re.++ (re.+ (re.* (str.to_re "Q"))) (re.++ (re.+ (re.+ (str.to_re "R"))) (re.++ (re.union (re.union (str.to_re "S") (str.to_re "T")) (re.union (str.to_re "U") (str.to_re "VV"))) (re.++ (re.+ (re.+ (str.to_re "WWW"))) (re.++ (re.union (re.union (str.to_re "XX") (str.to_re "Y")) (re.union (str.to_re "ZZZ") (str.to_re "!"))) (re.++ (re.* (re.+ (str.to_re """"""))) (re.++ (re.union (re.+ (str.to_re "###")) (re.+ (str.to_re "$$$"))) (re.++ (re.* (re.+ (str.to_re "%%"))) (re.++ (re.* (re.union (str.to_re "&") (str.to_re "''"))) (re.++ (re.+ (re.* (str.to_re "((("))) (re.++ (re.+ (re.+ (str.to_re ")))"))) (re.++ (re.+ (re.* (str.to_re "**"))) (re.++ (re.union (re.+ (str.to_re "++")) (re.+ (str.to_re ","))) (re.++ (re.* (re.* (str.to_re "---"))) (re.++ (re.+ (re.union (str.to_re "..") (str.to_re "//"))) (re.++ (re.+ (re.union (str.to_re ":::") (str.to_re ";"))) (re.++ (re.union (re.* (str.to_re "<<")) (re.* (str.to_re "==="))) (re.++ (re.union (re.+ (str.to_re ">>")) (re.+ (str.to_re "??"))) (re.++ (re.* (re.+ (str.to_re "@@@"))) (re.++ (re.+ (re.union (str.to_re "[") (str.to_re "\\\\"))) (re.++ (re.+ (re.+ (str.to_re "]]]"))) (re.++ (re.* (re.+ (str.to_re "^^^"))) (re.++ (re.+ (re.* (str.to_re "___"))) (re.++ (re.* (re.+ (str.to_re "`"))) (re.++ (re.union (re.+ (str.to_re "{{{")) (re.+ (str.to_re "|"))) (re.++ (re.union (re.+ (str.to_re "}")) (re.+ (str.to_re "~"))) (re.++ (re.+ (re.union (str.to_re "000") (str.to_re "1"))) (re.++ (re.union (re.* (str.to_re "2")) (re.* (str.to_re "33"))) (re.++ (re.+ (re.+ (str.to_re "44"))) (re.++ (re.+ (re.union (str.to_re "55") (str.to_re "666"))) (re.++ (re.union (re.* (str.to_re "77")) (re.* (str.to_re "888"))) (re.++ (re.* (re.* (str.to_re "99"))) (re.++ (re.+ (re.* (str.to_re "a"))) (re.++ (re.* (re.* (str.to_re "bb"))) (re.++ (re.* (re.union (str.to_re "ccc") (str.to_re "ddd"))) (re.++ (re.union (re.union (str.to_re "eee") (str.to_re "fff")) (re.union (str.to_re "ggg") (str.to_re "hhh"))) (re.++ (re.+ (re.union (str.to_re "i") (str.to_re "jjj"))) (re.++ (re.* (re.union (str.to_re "kk") (str.to_re "l"))) (re.++ (re.union (re.union (str.to_re "mm") (str.to_re "nn")) (re.union (str.to_re "oo") (str.to_re "ppp"))) (re.++ (re.+ (re.+ (str.to_re "qqq"))) (re.++ (re.union (re.+ (str.to_re "rr")) (re.+ (str.to_re "sss"))) (re.++ (re.+ (re.union (str.to_re "t") (str.to_re "uu"))) (re.++ (re.* (re.union (str.to_re "v") (str.to_re "ww"))) (re.++ (re.+ (re.+ (str.to_re "xxx"))) (re.++ (re.union (re.+ (str.to_re "y")) (re.+ (str.to_re "zz"))) (re.++ (re.+ (re.+ (str.to_re "AA"))) (re.++ (re.union (re.union (str.to_re "BB") (str.to_re "CC")) (re.union (str.to_re "D") (str.to_re "EEE"))) (re.++ (re.* (re.union (str.to_re "F") (str.to_re "GGG"))) (re.++ (re.union (re.* (str.to_re "HH")) (re.* (str.to_re "II"))) (re.++ (re.* (re.* (str.to_re "JJJ"))) (re.++ (re.union (re.union (str.to_re "KKK") (str.to_re "LL")) (re.union (str.to_re "MM") (str.to_re "NNN"))) (re.++ (re.* (re.+ (str.to_re "OO"))) (re.++ (re.* (re.* (str.to_re "PPP"))) (re.++ (re.+ (re.+ (str.to_re "QQ"))) (re.* (re.+ (str.to_re "R"))))))))))))))))))))))))))))))))))))))))))))))))))))))))))))))))))))))))))))))))))))))))))
(assert (not (str.in_re var0 (re.++ (re.+ (re.union (str.to_re "0") (str.to_re "111"))) (re.++ (re.* (re.* (str.to_re "222"))) (re.++ (re.union (re.union (str.to_re "333") (str.to_re "4")) (re.union (str.to_re "5") (str.to_re "66"))) (re.++ (re.* (re.union (str.to_re "7") (str.to_re "888"))) (re.++ (re.union (re.* (str.to_re "9")) (re.* (str.to_re "aaa"))) (re.++ (re.* (re.+ (str.to_re "bbb"))) (re.++ (re.* (re.union (str.to_re "c") (str.to_re "dd"))) (re.++ (re.union (re.* (str.to_re "e")) (re.* (str.to_re "fff"))) (re.++ (re.union (re.* (str.to_re "gg")) (re.* (str.to_re "hhh"))) (re.++ (re.union (re.+ (str.to_re "i")) (re.+ (str.to_re "jjj"))) (re.++ (re.union (re.union (str.to_re "kkk") (str.to_re "l")) (re.union (str.to_re "mm") (str.to_re "nn"))) (re.++ (re.union (re.+ (str.to_re "oo")) (re.+ (str.to_re "ppp"))) (re.++ (re.* (re.+ (str.to_re "q"))) (re.++ (re.union (re.union (str.to_re "rr") (str.to_re "ss")) (re.union (str.to_re "tt") (str.to_re "uu"))) (re.++ (re.union (re.union (str.to_re "vv") (str.to_re "www")) (re.union (str.to_re "x") (str.to_re "yyy"))) (re.++ (re.* (re.union (str.to_re "zzz") (str.to_re "AA"))) (re.++ (re.+ (re.+ (str.to_re "BB"))) (re.++ (re.union (re.+ (str.to_re "CC")) (re.+ (str.to_re "DDD"))) (re.++ (re.+ (re.union (str.to_re "EEE") (str.to_re "FFF"))) (re.++ (re.* (re.* (str.to_re "GG"))) (re.++ (re.+ (re.union (str.to_re "HH") (str.to_re "II"))) (re.++ (re.+ (re.+ (str.to_re "JJ"))) (re.++ (re.* (re.* (str.to_re "K"))) (re.++ (re.* (re.union (str.to_re "L") (str.to_re "MM"))) (re.++ (re.+ (re.+ (str.to_re "NN"))) (re.++ (re.+ (re.union (str.to_re "O") (str.to_re "PPP"))) (re.++ (re.union (re.+ (str.to_re "Q")) (re.+ (str.to_re "RRR"))) (re.++ (re.* (re.union (str.to_re "SSS") (str.to_re "T"))) (re.++ (re.union (re.union (str.to_re "U") (str.to_re "VV")) (re.union (str.to_re "WWW") (str.to_re "X"))) (re.++ (re.union (re.+ (str.to_re "Y")) (re.+ (str.to_re "ZZZ"))) (re.++ (re.union (re.+ (str.to_re "!")) (re.+ (str.to_re """"""""))) (re.++ (re.* (re.+ (str.to_re "##"))) (re.++ (re.+ (re.+ (str.to_re "$$$"))) (re.++ (re.union (re.* (str.to_re "%%%")) (re.* (str.to_re "&"))) (re.++ (re.* (re.+ (str.to_re "''"))) (re.++ (re.union (re.union (str.to_re "((") (str.to_re ")))")) (re.union (str.to_re "*") (str.to_re "+++"))) (re.++ (re.+ (re.* (str.to_re ",,,"))) (re.++ (re.union (re.+ (str.to_re "--")) (re.+ (str.to_re ".."))) (re.++ (re.union (re.* (str.to_re "//")) (re.* (str.to_re ":::"))) (re.++ (re.* (re.union (str.to_re ";") (str.to_re "<<<"))) (re.++ (re.union (re.* (str.to_re "===")) (re.* (str.to_re ">>"))) (re.++ (re.+ (re.+ (str.to_re "?"))) (re.++ (re.union (re.union (str.to_re "@") (str.to_re "[[[")) (re.union (str.to_re "\\") (str.to_re "]]]"))) (re.++ (re.* (re.union (str.to_re "^") (str.to_re "___"))) (re.++ (re.+ (re.* (str.to_re "``"))) (re.++ (re.* (re.union (str.to_re "{") (str.to_re "||"))) (re.++ (re.union (re.* (str.to_re "}}}")) (re.* (str.to_re "~~"))) (re.++ (re.+ (re.union (str.to_re "000") (str.to_re "11"))) (re.++ (re.+ (re.+ (str.to_re "2"))) (re.++ (re.* (re.union (str.to_re "33") (str.to_re "444"))) (re.++ (re.* (re.* (str.to_re "5"))) (re.++ (re.union (re.union (str.to_re "6") (str.to_re "777")) (re.union (str.to_re "888") (str.to_re "99"))) (re.++ (re.union (re.union (str.to_re "aaa") (str.to_re "b")) (re.union (str.to_re "ccc") (str.to_re "d"))) (re.++ (re.* (re.union (str.to_re "ee") (str.to_re "fff"))) (re.++ (re.* (re.union (str.to_re "gg") (str.to_re "h"))) (re.++ (re.+ (re.+ (str.to_re "i"))) (re.++ (re.* (re.+ (str.to_re "jjj"))) (re.++ (re.* (re.+ (str.to_re "kk"))) (re.++ (re.* (re.+ (str.to_re "lll"))) (re.++ (re.union (re.* (str.to_re "mmm")) (re.* (str.to_re "nnn"))) (re.++ (re.union (re.* (str.to_re "o")) (re.* (str.to_re "pp"))) (re.++ (re.+ (re.union (str.to_re "q") (str.to_re "rr"))) (re.++ (re.+ (re.union (str.to_re "sss") (str.to_re "t"))) (re.++ (re.union (re.* (str.to_re "u")) (re.* (str.to_re "v"))) (re.++ (re.* (re.* (str.to_re "ww"))) (re.++ (re.* (re.+ (str.to_re "xx"))) (re.++ (re.union (re.* (str.to_re "yy")) (re.* (str.to_re "zz"))) (re.++ (re.union (re.union (str.to_re "AA") (str.to_re "BBB")) (re.union (str.to_re "C") (str.to_re "D"))) (re.++ (re.* (re.union (str.to_re "EEE") (str.to_re "F"))) (re.++ (re.* (re.+ (str.to_re "GGG"))) (re.++ (re.* (re.union (str.to_re "HH") (str.to_re "III"))) (re.++ (re.+ (re.union (str.to_re "J") (str.to_re "KK"))) (re.++ (re.* (re.+ (str.to_re "LLL"))) (re.++ (re.* (re.union (str.to_re "MM") (str.to_re "NN"))) (re.++ (re.* (re.* (str.to_re "OOO"))) (re.++ (re.* (re.union (str.to_re "PPP") (str.to_re "QQ"))) (re.++ (re.union (re.* (str.to_re "R")) (re.* (str.to_re "SS"))) (re.++ (re.union (re.+ (str.to_re "TTT")) (re.+ (str.to_re "UUU"))) (re.++ (re.* (re.* (str.to_re "VVV"))) (re.++ (re.+ (re.* (str.to_re "WW"))) (re.++ (re.* (re.union (str.to_re "XX") (str.to_re "YYY"))) (re.++ (re.* (re.* (str.to_re "ZZZ"))) (re.++ (re.* (re.* (str.to_re "!!!"))) (re.++ (re.* (re.union (str.to_re """""") (str.to_re "#"))) (re.++ (re.union (re.union (str.to_re "$$$") (str.to_re "%")) (re.union (str.to_re "&&") (str.to_re "''"))) (re.union (re.union (str.to_re "((") (str.to_re ")")) (re.union (str.to_re "***") (str.to_re "+")))))))))))))))))))))))))))))))))))))))))))))))))))))))))))))))))))))))))))))))))))))))))))
(check-sat)